(set-logic HORN)
(set-info :source |
  Benchmark: ../golem/build/RealCodeNested/originalcodesceleton3.c
  Generated by Korn 0.4 https://github.com/gernst/korn
|)


(declare-fun $main_sum2 (Int Int Int Int Int Int Int Int Int Int Int Int Int Int) Bool)
(declare-fun $main_if8 (Int Int Int Int Int Int Int Int Int Int Int Int Int Int Int Int Int Int Int Int Int Int Int Int Int Int Int Int) Bool)
(declare-fun __assert_fail (Int Int Int Int) Bool)
(declare-fun $main_sum4 (Int Int Int Int Int Int Int Int Int Int Int Int Int Int) Bool)
(declare-fun $main_if2 (Int Int Int Int Int Int Int Int Int Int Int Int Int Int Int Int Int Int Int Int Int Int Int Int Int Int Int Int) Bool)
(declare-fun $main_if6 (Int Int Int Int Int Int Int Int Int Int Int Int Int Int Int Int Int Int Int Int Int Int Int Int Int Int Int Int) Bool)
(declare-fun $main_inv2 (Int Int Int Int Int Int Int Int Int Int Int Int Int Int) Bool)
(declare-fun $__VERIFIER_assert_pre (Int) Bool)
(declare-fun $__VERIFIER_assert_if1 (Int Int) Bool)
(declare-fun $main_inv4 (Int Int Int Int Int Int Int Int Int Int Int Int Int Int) Bool)
(declare-fun $main_if5 (Int Int Int Int Int Int Int Int Int Int Int Int Int Int Int Int Int Int Int Int Int Int Int Int Int Int Int Int) Bool)
(declare-fun $main_inv1 (Int Int Int Int Int Int Int Int Int Int Int Int Int Int) Bool)
(declare-fun $main_if4 (Int Int Int Int Int Int Int Int Int Int Int Int Int Int Int Int Int Int Int Int Int Int Int Int Int Int Int Int) Bool)
(declare-fun $main_if3 (Int Int Int Int Int Int Int Int Int Int Int Int Int Int Int Int Int Int Int Int Int Int Int Int Int Int Int Int) Bool)
(declare-fun $main_if7 (Int Int Int Int Int Int Int Int Int Int Int Int Int Int Int Int Int Int Int Int Int Int Int Int Int Int Int Int) Bool)
(declare-fun $main_sum3 (Int Int Int Int Int Int Int Int Int Int Int Int Int Int) Bool)
(declare-fun __VERIFIER_assert (Int) Bool)
(declare-fun $__assert_fail_pre (Int Int Int Int) Bool)
(declare-fun $main_sum1 (Int Int Int Int Int Int Int Int Int Int Int Int Int Int) Bool)
(declare-fun $main_inv3 (Int Int Int Int Int Int Int Int Int Int Int Int Int Int) Bool)
(declare-fun $__VERIFIER_assert_ERROR (Int Int) Bool)

; label ERROR
(assert
  (forall ((cond!1 Int))
    (=> (and (not (not (= cond!1 0)))
             ($__VERIFIER_assert_pre cond!1))
        ($__VERIFIER_assert_ERROR cond!1 cond!1))))

; error
(assert
  (forall ((cond!1 Int) (cond!2 Int))
    (=> (and ($__VERIFIER_assert_ERROR cond!1 cond!2))
        false)))

; if else
(assert
  (forall ((cond!1 Int))
    (=> (and (not (not (not (= cond!1 0))))
             ($__VERIFIER_assert_pre cond!1))
        ($__VERIFIER_assert_if1 cond!1 cond!1))))

; post __VERIFIER_assert
(assert
  (forall ((cond!1 Int) (cond!3 Int))
    (=> (and ($__VERIFIER_assert_if1 cond!1 cond!3))
        (__VERIFIER_assert cond!1))))

; loop entry $main_inv1 (line 21)
(assert
  (forall ((l!11 Int) (j!15 Int) (res!16 Int) (preSize!8 Int) (var!13 Int) (reachableResult!17 Int) (transitions!4 Int) (subPath!9 Int) (loopTransitions!5 Int) (loopSize!6 Int) (i!10 Int) (edgeVars!7 Int) (coreVars!14 Int) (reachedRefined!12 Int))
    (=> (and (= j!15 0)
             (= coreVars!14 0)
             (= var!13 0)
             (= reachedRefined!12 0)
             (= l!11 0)
             (= i!10 0)
             (= subPath!9 0)
             (<= 5 loopSize!6)
             (<= loopSize!6 10)
             (<= 5 loopTransitions!5)
             (<= loopTransitions!5 100)
             (<= 2 transitions!4)
             (<= transitions!4 100)
             (<= 5 edgeVars!7)
             (<= edgeVars!7 10000))
        ($main_inv1 transitions!4 loopTransitions!5 loopSize!6 edgeVars!7 preSize!8 subPath!9 i!10 l!11 reachedRefined!12 var!13 coreVars!14 j!15 res!16 reachableResult!17))))

; loop term $main_sum1 (line 21)
(assert
  (forall ((loopTransitions!19 Int) (l!25 Int) (reachableResult!31 Int) (coreVars!28 Int) (loopSize!20 Int) (reachedRefined!26 Int) (transitions!18 Int) (res!30 Int) (var!27 Int) (subPath!23 Int) (edgeVars!21 Int) (j!29 Int) (preSize!22 Int) (i!24 Int))
    (=> (and (not (< i!24 transitions!18))
             ($main_inv1 transitions!18 loopTransitions!19 loopSize!20 edgeVars!21 preSize!22 subPath!23 i!24 l!25 reachedRefined!26 var!27 coreVars!28 j!29 res!30 reachableResult!31))
        ($main_sum1 transitions!18 loopTransitions!19 loopSize!20 edgeVars!21 preSize!22 subPath!23 i!24 l!25 reachedRefined!26 var!27 coreVars!28 j!29 res!30 reachableResult!31))))

; loop entry $main_inv2 (line 23)
(assert
  (forall ((loopTransitions!19 Int) (l!25 Int) (reachableResult!31 Int) (coreVars!28 Int) (loopSize!20 Int) (reachedRefined!26 Int) (transitions!18 Int) (res!30 Int) (var!27 Int) (subPath!23 Int) (edgeVars!21 Int) (j!29 Int) (preSize!22 Int) (i!24 Int))
    (=> (and (< i!24 transitions!18)
             ($main_inv1 transitions!18 loopTransitions!19 loopSize!20 edgeVars!21 preSize!22 subPath!23 i!24 l!25 reachedRefined!26 var!27 coreVars!28 j!29 res!30 reachableResult!31))
        ($main_inv2 transitions!18 loopTransitions!19 loopSize!20 edgeVars!21 subPath!23 subPath!23 i!24 l!25 reachedRefined!26 var!27 coreVars!28 j!29 res!30 reachableResult!31))))

; loop term $main_sum2 (line 23)
(assert
  (forall ((var!41 Int) (coreVars!42 Int) (transitions!32 Int) (edgeVars!35 Int) (i!38 Int) (preSize!36 Int) (res!44 Int) (reachedRefined!40 Int) (l!39 Int) (loopTransitions!33 Int) (j!43 Int) (reachableResult!45 Int) (subPath!37 Int) (loopSize!34 Int))
    (=> (and (not (< var!41 edgeVars!35))
             ($main_inv2 transitions!32 loopTransitions!33 loopSize!34 edgeVars!35 preSize!36 subPath!37 i!38 l!39 reachedRefined!40 var!41 coreVars!42 j!43 res!44 reachableResult!45))
        ($main_sum2 transitions!32 loopTransitions!33 loopSize!34 edgeVars!35 preSize!36 subPath!37 i!38 l!39 reachedRefined!40 var!41 coreVars!42 j!43 res!44 reachableResult!45))))

; forwards $main_inv2 (line 23)
(assert
  (forall ((var!41 Int) (coreVars!42 Int) (transitions!32 Int) (edgeVars!35 Int) (i!38 Int) (preSize!36 Int) (res!44 Int) (reachedRefined!40 Int) (l!39 Int) (loopTransitions!33 Int) (j!43 Int) (reachableResult!45 Int) (subPath!37 Int) (loopSize!34 Int))
    (=> (and (< var!41 edgeVars!35)
             ($main_inv2 transitions!32 loopTransitions!33 loopSize!34 edgeVars!35 preSize!36 subPath!37 i!38 l!39 reachedRefined!40 var!41 coreVars!42 j!43 res!44 reachableResult!45))
        ($main_inv2 transitions!32 loopTransitions!33 loopSize!34 edgeVars!35 preSize!36 subPath!37 i!38 l!39 reachedRefined!40 (+ var!41 1) (+ coreVars!42 2) j!43 res!44 reachableResult!45))))

; loop entry $main_inv3 (line 28)
(assert
  (forall ((i!52 Int) (edgeVars!49 Int) (subPath!51 Int) (res!58 Int) (reachableResult!59 Int) (loopSize!48 Int) (preSize!50 Int) (coreVars!56 Int) (transitions!46 Int) (l!53 Int) (var!55 Int) (loopTransitions!47 Int) (j!57 Int) (reachedRefined!54 Int))
    (=> (and ($main_sum2 transitions!46 loopTransitions!47 loopSize!48 edgeVars!49 preSize!50 subPath!51 i!52 l!53 reachedRefined!54 var!55 coreVars!56 j!57 res!58 reachableResult!59))
        ($main_inv3 transitions!46 loopTransitions!47 loopSize!48 edgeVars!49 preSize!50 subPath!51 i!52 l!53 reachedRefined!54 var!55 coreVars!56 j!57 res!58 reachableResult!59))))

; loop term $main_sum3 (line 28)
(assert
  (forall ((l!67 Int) (loopSize!62 Int) (var!69 Int) (subPath!65 Int) (reachedRefined!68 Int) (loopTransitions!61 Int) (res!72 Int) (edgeVars!63 Int) (j!71 Int) (preSize!64 Int) (i!66 Int) (coreVars!70 Int) (reachableResult!73 Int) (transitions!60 Int))
    (=> (and (not (< j!71 loopTransitions!61))
             ($main_inv3 transitions!60 loopTransitions!61 loopSize!62 edgeVars!63 preSize!64 subPath!65 i!66 l!67 reachedRefined!68 var!69 coreVars!70 j!71 res!72 reachableResult!73))
        ($main_sum3 transitions!60 loopTransitions!61 loopSize!62 edgeVars!63 preSize!64 subPath!65 i!66 l!67 reachedRefined!68 var!69 coreVars!70 j!71 res!72 reachableResult!73))))

; loop entry $main_inv4 (line 32)
(assert
  (forall ((l!67 Int) (loopSize!62 Int) (var!69 Int) (subPath!65 Int) (reachedRefined!68 Int) (loopTransitions!61 Int) (res!72 Int) (edgeVars!63 Int) (j!71 Int) (preSize!64 Int) (i!66 Int) (coreVars!70 Int) (reachableResult!73 Int) (transitions!60 Int))
    (=> (and (> res!72 0)
             (<= 0 res!72)
             (<= res!72 1)
             (< j!71 loopTransitions!61)
             ($main_inv3 transitions!60 loopTransitions!61 loopSize!62 edgeVars!63 preSize!64 subPath!65 i!66 l!67 reachedRefined!68 var!69 coreVars!70 j!71 res!72 reachableResult!73))
        ($main_inv4 transitions!60 loopTransitions!61 loopSize!62 edgeVars!63 preSize!64 subPath!65 i!66 l!67 reachedRefined!68 var!69 coreVars!70 j!71 res!72 reachableResult!73))))

; loop term $main_sum4 (line 32)
(assert
  (forall ((res!86 Int) (var!83 Int) (i!80 Int) (subPath!79 Int) (reachedRefined!82 Int) (edgeVars!77 Int) (j!85 Int) (loopSize!76 Int) (l!81 Int) (reachableResult!87 Int) (coreVars!84 Int) (loopTransitions!75 Int) (preSize!78 Int) (transitions!74 Int))
    (=> (and (not (< l!81 (* loopSize!76 2)))
             ($main_inv4 transitions!74 loopTransitions!75 loopSize!76 edgeVars!77 preSize!78 subPath!79 i!80 l!81 reachedRefined!82 var!83 coreVars!84 j!85 res!86 reachableResult!87))
        ($main_sum4 transitions!74 loopTransitions!75 loopSize!76 edgeVars!77 preSize!78 subPath!79 i!80 l!81 reachedRefined!82 var!83 coreVars!84 j!85 res!86 reachableResult!87))))

; ite left
(assert
  (forall ((res!86 Int) (var!83 Int) (i!80 Int) (subPath!79 Int) (reachedRefined!82 Int) (edgeVars!77 Int) (j!85 Int) (loopSize!76 Int) (l!81 Int) (reachableResult!87 Int) (coreVars!84 Int) (loopTransitions!75 Int) (preSize!78 Int) (transitions!74 Int))
    (=> (and (not (= subPath!79 0))
             (< l!81 (* loopSize!76 2))
             ($main_inv4 transitions!74 loopTransitions!75 loopSize!76 edgeVars!77 preSize!78 subPath!79 i!80 l!81 reachedRefined!82 var!83 coreVars!84 j!85 res!86 reachableResult!87))
        ($main_if2 transitions!74 loopTransitions!75 loopSize!76 edgeVars!77 preSize!78 subPath!79 i!80 l!81 reachedRefined!82 var!83 coreVars!84 j!85 res!86 reachableResult!87 transitions!74 loopTransitions!75 loopSize!76 edgeVars!77 preSize!78 subPath!79 i!80 l!81 reachedRefined!82 var!83 coreVars!84 j!85 res!86 reachableResult!87))))

; ite right
(assert
  (forall ((res!86 Int) (var!83 Int) (i!80 Int) (subPath!79 Int) (reachedRefined!82 Int) (edgeVars!77 Int) (j!85 Int) (loopSize!76 Int) (l!81 Int) (reachableResult!87 Int) (coreVars!84 Int) (loopTransitions!75 Int) (preSize!78 Int) (transitions!74 Int))
    (=> (and (not (not (= subPath!79 0)))
             (< l!81 (* loopSize!76 2))
             ($main_inv4 transitions!74 loopTransitions!75 loopSize!76 edgeVars!77 preSize!78 subPath!79 i!80 l!81 reachedRefined!82 var!83 coreVars!84 j!85 res!86 reachableResult!87))
        ($main_if2 transitions!74 loopTransitions!75 loopSize!76 edgeVars!77 preSize!78 subPath!79 i!80 l!81 reachedRefined!82 var!83 coreVars!84 j!85 res!86 reachableResult!87 transitions!74 loopTransitions!75 loopSize!76 edgeVars!77 preSize!78 subPath!79 i!80 l!81 reachedRefined!82 var!83 coreVars!84 j!85 res!86 reachableResult!87))))

; break $main_sum4
(assert
  (forall ((res!86 Int) (coreVars!98 Int) (reachedRefined!96 Int) (var!83 Int) (subPath!93 Int) (i!80 Int) (subPath!79 Int) (reachedRefined!82 Int) (j!85 Int) (loopSize!76 Int) (l!81 Int) (reachableResult!87 Int) (coreVars!84 Int) (reachableResult!101 Int) (loopSize!90 Int) (res!100 Int) (loopTransitions!75 Int) (preSize!78 Int) (transitions!74 Int) (j!99 Int) (preSize!92 Int) (var!97 Int) (edgeVars!91 Int) (transitions!88 Int) (l!95 Int) (i!94 Int) (edgeVars!77 Int) (loopTransitions!89 Int))
    (=> (and (= l!95 0)
             (not (> reachableResult!101 0))
             (= (mod l!95 2) 0)
             (or (= reachableResult!101 1) (= reachableResult!101 0))
             ($main_if2 transitions!74 loopTransitions!75 loopSize!76 edgeVars!77 preSize!78 subPath!79 i!80 l!81 reachedRefined!82 var!83 coreVars!84 j!85 res!86 reachableResult!87 transitions!88 loopTransitions!89 loopSize!90 edgeVars!91 preSize!92 subPath!93 i!94 l!95 reachedRefined!96 var!97 coreVars!98 j!99 res!100 reachableResult!101))
        ($main_sum4 transitions!88 loopTransitions!89 loopSize!90 edgeVars!91 preSize!92 subPath!93 i!94 l!95 (ite (not (= subPath!79 0)) (+ reachedRefined!82 subPath!79) reachedRefined!82) var!97 coreVars!98 j!99 res!100 reachableResult!101))))

; if else
(assert
  (forall ((res!86 Int) (coreVars!98 Int) (reachedRefined!96 Int) (var!83 Int) (subPath!93 Int) (i!80 Int) (subPath!79 Int) (reachedRefined!82 Int) (j!85 Int) (loopSize!76 Int) (l!81 Int) (reachableResult!87 Int) (coreVars!84 Int) (reachableResult!101 Int) (loopSize!90 Int) (res!100 Int) (loopTransitions!75 Int) (preSize!78 Int) (transitions!74 Int) (j!99 Int) (preSize!92 Int) (var!97 Int) (edgeVars!91 Int) (transitions!88 Int) (l!95 Int) (i!94 Int) (edgeVars!77 Int) (loopTransitions!89 Int))
    (=> (and (not (= l!95 0))
             (not (> reachableResult!101 0))
             (= (mod l!95 2) 0)
             (or (= reachableResult!101 1) (= reachableResult!101 0))
             ($main_if2 transitions!74 loopTransitions!75 loopSize!76 edgeVars!77 preSize!78 subPath!79 i!80 l!81 reachedRefined!82 var!83 coreVars!84 j!85 res!86 reachableResult!87 transitions!88 loopTransitions!89 loopSize!90 edgeVars!91 preSize!92 subPath!93 i!94 l!95 reachedRefined!96 var!97 coreVars!98 j!99 res!100 reachableResult!101))
        ($main_if3 transitions!74 loopTransitions!75 loopSize!76 edgeVars!77 preSize!78 subPath!79 i!80 l!81 reachedRefined!82 var!83 coreVars!84 j!85 res!86 reachableResult!87 transitions!88 loopTransitions!89 loopSize!90 edgeVars!91 preSize!92 subPath!93 i!94 l!95 (ite (not (= subPath!79 0)) (+ reachedRefined!82 subPath!79) reachedRefined!82) var!97 coreVars!98 j!99 res!100 reachableResult!101))))

; if then
(assert
  (forall ((res!86 Int) (coreVars!98 Int) (reachedRefined!96 Int) (var!83 Int) (subPath!93 Int) (i!80 Int) (subPath!79 Int) (reachedRefined!82 Int) (j!85 Int) (loopSize!76 Int) (l!81 Int) (reachableResult!87 Int) (coreVars!84 Int) (reachableResult!101 Int) (loopSize!90 Int) (res!100 Int) (loopTransitions!75 Int) (preSize!78 Int) (transitions!74 Int) (j!99 Int) (preSize!92 Int) (var!97 Int) (edgeVars!91 Int) (transitions!88 Int) (l!95 Int) (i!94 Int) (edgeVars!77 Int) (loopTransitions!89 Int))
    (=> (and (> reachableResult!101 0)
             (= (mod l!95 2) 0)
             (or (= reachableResult!101 1) (= reachableResult!101 0))
             ($main_if2 transitions!74 loopTransitions!75 loopSize!76 edgeVars!77 preSize!78 subPath!79 i!80 l!81 reachedRefined!82 var!83 coreVars!84 j!85 res!86 reachableResult!87 transitions!88 loopTransitions!89 loopSize!90 edgeVars!91 preSize!92 subPath!93 i!94 l!95 reachedRefined!96 var!97 coreVars!98 j!99 res!100 reachableResult!101))
        ($main_if4 transitions!74 loopTransitions!75 loopSize!76 edgeVars!77 preSize!78 subPath!79 i!80 l!81 reachedRefined!82 var!83 coreVars!84 j!85 res!86 reachableResult!87 transitions!88 loopTransitions!89 loopSize!90 edgeVars!91 preSize!92 (+ subPath!93 1) i!94 (+ l!95 1) (ite (not (= subPath!79 0)) (+ reachedRefined!82 subPath!79) reachedRefined!82) var!97 coreVars!98 j!99 res!100 reachableResult!101))))

; if else
(assert
  (forall ((res!86 Int) (loopSize!104 Int) (reachableResult!115 Int) (subPath!107 Int) (var!111 Int) (i!108 Int) (coreVars!112 Int) (i!80 Int) (reachedRefined!82 Int) (j!113 Int) (j!85 Int) (loopSize!76 Int) (l!81 Int) (reachedRefined!110 Int) (reachableResult!87 Int) (l!109 Int) (coreVars!84 Int) (preSize!106 Int) (var!83 Int) (transitions!102 Int) (edgeVars!105 Int) (loopTransitions!75 Int) (preSize!78 Int) (transitions!74 Int) (loopTransitions!103 Int) (subPath!79 Int) (res!114 Int) (edgeVars!77 Int))
    (=> (and ($main_if3 transitions!74 loopTransitions!75 loopSize!76 edgeVars!77 preSize!78 subPath!79 i!80 l!81 reachedRefined!82 var!83 coreVars!84 j!85 res!86 reachableResult!87 transitions!102 loopTransitions!103 loopSize!104 edgeVars!105 preSize!106 subPath!107 i!108 l!109 reachedRefined!110 var!111 coreVars!112 j!113 res!114 reachableResult!115))
        ($main_if4 transitions!74 loopTransitions!75 loopSize!76 edgeVars!77 preSize!78 subPath!79 i!80 l!81 reachedRefined!82 var!83 coreVars!84 j!85 res!86 reachableResult!87 transitions!102 loopTransitions!103 loopSize!104 edgeVars!105 preSize!106 (- subPath!107 1) i!108 (- l!109 1) reachedRefined!110 var!111 coreVars!112 j!113 res!114 reachableResult!115))))

; if then
(assert
  (forall ((l!123 Int) (res!86 Int) (subPath!121 Int) (var!125 Int) (var!83 Int) (i!122 Int) (reachableResult!129 Int) (i!80 Int) (coreVars!126 Int) (reachedRefined!124 Int) (j!85 Int) (loopSize!76 Int) (loopTransitions!117 Int) (l!81 Int) (loopSize!118 Int) (reachableResult!87 Int) (coreVars!84 Int) (transitions!116 Int) (loopTransitions!75 Int) (preSize!78 Int) (transitions!74 Int) (res!128 Int) (subPath!79 Int) (edgeVars!119 Int) (j!127 Int) (reachedRefined!82 Int) (preSize!120 Int) (edgeVars!77 Int))
    (=> (and ($main_if4 transitions!74 loopTransitions!75 loopSize!76 edgeVars!77 preSize!78 subPath!79 i!80 l!81 reachedRefined!82 var!83 coreVars!84 j!85 res!86 reachableResult!87 transitions!116 loopTransitions!117 loopSize!118 edgeVars!119 preSize!120 subPath!121 i!122 l!123 reachedRefined!124 var!125 coreVars!126 j!127 res!128 reachableResult!129))
        ($main_if5 transitions!74 loopTransitions!75 loopSize!76 edgeVars!77 preSize!78 subPath!79 i!80 l!81 reachedRefined!82 var!83 coreVars!84 j!85 res!86 reachableResult!87 transitions!116 loopTransitions!117 loopSize!118 edgeVars!119 preSize!120 subPath!121 i!122 l!123 reachedRefined!124 var!125 coreVars!126 j!127 res!128 reachableResult!129))))

; if else
(assert
  (forall ((res!86 Int) (coreVars!98 Int) (reachedRefined!96 Int) (var!83 Int) (subPath!93 Int) (i!80 Int) (subPath!79 Int) (reachedRefined!82 Int) (j!85 Int) (loopSize!76 Int) (l!81 Int) (reachableResult!87 Int) (coreVars!84 Int) (reachableResult!101 Int) (loopSize!90 Int) (res!100 Int) (loopTransitions!75 Int) (preSize!78 Int) (transitions!74 Int) (j!99 Int) (preSize!92 Int) (var!97 Int) (edgeVars!91 Int) (transitions!88 Int) (l!95 Int) (i!94 Int) (edgeVars!77 Int) (loopTransitions!89 Int))
    (=> (and (not (= (mod l!95 2) 0))
             (or (= reachableResult!101 1) (= reachableResult!101 0))
             ($main_if2 transitions!74 loopTransitions!75 loopSize!76 edgeVars!77 preSize!78 subPath!79 i!80 l!81 reachedRefined!82 var!83 coreVars!84 j!85 res!86 reachableResult!87 transitions!88 loopTransitions!89 loopSize!90 edgeVars!91 preSize!92 subPath!93 i!94 l!95 reachedRefined!96 var!97 coreVars!98 j!99 res!100 reachableResult!101))
        ($main_if5 transitions!74 loopTransitions!75 loopSize!76 edgeVars!77 preSize!78 subPath!79 i!80 l!81 reachedRefined!82 var!83 coreVars!84 j!85 res!86 reachableResult!87 transitions!88 loopTransitions!89 loopSize!90 edgeVars!91 preSize!92 subPath!93 i!94 (+ l!95 1) (ite (not (= subPath!79 0)) (+ reachedRefined!82 subPath!79) reachedRefined!82) var!97 coreVars!98 j!99 res!100 reachableResult!101))))

; forwards $main_inv4 (line 32)
(assert
  (forall ((res!142 Int) (preSize!134 Int) (res!86 Int) (loopSize!132 Int) (i!136 Int) (var!83 Int) (transitions!130 Int) (reachedRefined!138 Int) (l!137 Int) (i!80 Int) (reachedRefined!82 Int) (subPath!135 Int) (coreVars!140 Int) (edgeVars!77 Int) (loopSize!76 Int) (l!81 Int) (loopTransitions!131 Int) (var!139 Int) (reachableResult!87 Int) (coreVars!84 Int) (j!141 Int) (loopTransitions!75 Int) (preSize!78 Int) (transitions!74 Int) (reachableResult!143 Int) (subPath!79 Int) (edgeVars!133 Int) (j!85 Int))
    (=> (and ($main_if5 transitions!74 loopTransitions!75 loopSize!76 edgeVars!77 preSize!78 subPath!79 i!80 l!81 reachedRefined!82 var!83 coreVars!84 j!85 res!86 reachableResult!87 transitions!130 loopTransitions!131 loopSize!132 edgeVars!133 preSize!134 subPath!135 i!136 l!137 reachedRefined!138 var!139 coreVars!140 j!141 res!142 reachableResult!143))
        ($main_inv4 transitions!130 loopTransitions!131 loopSize!132 edgeVars!133 preSize!134 subPath!135 i!136 l!137 reachedRefined!138 var!139 coreVars!140 j!141 res!142 reachableResult!143))))

; break $main_sum3
(assert
  (forall ((l!151 Int) (coreVars!154 Int) (reachedRefined!152 Int) (preSize!148 Int) (var!153 Int) (edgeVars!147 Int) (loopSize!146 Int) (j!155 Int) (res!156 Int) (loopTransitions!145 Int) (transitions!144 Int) (i!150 Int) (subPath!149 Int) (reachableResult!157 Int))
    (=> (and (> subPath!149 preSize!148)
             ($main_sum4 transitions!144 loopTransitions!145 loopSize!146 edgeVars!147 preSize!148 subPath!149 i!150 l!151 reachedRefined!152 var!153 coreVars!154 j!155 res!156 reachableResult!157))
        ($main_sum3 transitions!144 loopTransitions!145 loopSize!146 edgeVars!147 preSize!148 subPath!149 i!150 l!151 subPath!149 var!153 coreVars!154 j!155 res!156 reachableResult!157))))

; if else
(assert
  (forall ((l!151 Int) (preSize!148 Int) (l!67 Int) (loopSize!62 Int) (var!153 Int) (edgeVars!147 Int) (loopSize!146 Int) (j!155 Int) (loopTransitions!145 Int) (subPath!65 Int) (reachedRefined!68 Int) (transitions!144 Int) (loopTransitions!61 Int) (i!150 Int) (res!72 Int) (edgeVars!63 Int) (subPath!149 Int) (reachableResult!157 Int) (coreVars!154 Int) (j!71 Int) (preSize!64 Int) (i!66 Int) (coreVars!70 Int) (reachedRefined!152 Int) (var!69 Int) (res!156 Int) (reachableResult!73 Int) (transitions!60 Int))
    (=> (and (not (> subPath!149 preSize!148))
             ($main_sum4 transitions!144 loopTransitions!145 loopSize!146 edgeVars!147 preSize!148 subPath!149 i!150 l!151 reachedRefined!152 var!153 coreVars!154 j!155 res!156 reachableResult!157))
        ($main_if6 transitions!60 loopTransitions!61 loopSize!62 edgeVars!63 preSize!64 subPath!65 i!66 l!67 reachedRefined!68 var!69 coreVars!70 j!71 res!72 reachableResult!73 transitions!144 loopTransitions!145 loopSize!146 edgeVars!147 preSize!148 subPath!149 i!150 l!151 reachedRefined!152 var!153 coreVars!154 j!155 res!156 reachableResult!157))))

; if then
(assert
  (forall ((subPath!163 Int) (edgeVars!161 Int) (subPath!65 Int) (preSize!162 Int) (j!169 Int) (loopTransitions!61 Int) (res!72 Int) (transitions!158 Int) (edgeVars!63 Int) (var!167 Int) (j!71 Int) (preSize!64 Int) (i!66 Int) (coreVars!70 Int) (l!165 Int) (l!67 Int) (i!164 Int) (loopSize!62 Int) (coreVars!168 Int) (loopSize!160 Int) (loopTransitions!159 Int) (var!69 Int) (res!170 Int) (reachedRefined!166 Int) (reachedRefined!68 Int) (reachableResult!73 Int) (transitions!60 Int) (reachableResult!171 Int))
    (=> (and ($main_if6 transitions!60 loopTransitions!61 loopSize!62 edgeVars!63 preSize!64 subPath!65 i!66 l!67 reachedRefined!68 var!69 coreVars!70 j!71 res!72 reachableResult!73 transitions!158 loopTransitions!159 loopSize!160 edgeVars!161 preSize!162 subPath!163 i!164 l!165 reachedRefined!166 var!167 coreVars!168 j!169 res!170 reachableResult!171))
        ($main_if7 transitions!60 loopTransitions!61 loopSize!62 edgeVars!63 preSize!64 subPath!65 i!66 l!67 reachedRefined!68 var!69 coreVars!70 j!71 res!72 reachableResult!73 transitions!158 loopTransitions!159 loopSize!160 edgeVars!161 preSize!162 subPath!163 i!164 0 reachedRefined!166 var!167 coreVars!168 j!169 res!170 reachableResult!171))))

; if else
(assert
  (forall ((l!67 Int) (loopSize!62 Int) (var!69 Int) (subPath!65 Int) (reachedRefined!68 Int) (loopTransitions!61 Int) (res!72 Int) (edgeVars!63 Int) (j!71 Int) (preSize!64 Int) (i!66 Int) (coreVars!70 Int) (reachableResult!73 Int) (transitions!60 Int))
    (=> (and (not (> res!72 0))
             (<= 0 res!72)
             (<= res!72 1)
             (< j!71 loopTransitions!61)
             ($main_inv3 transitions!60 loopTransitions!61 loopSize!62 edgeVars!63 preSize!64 subPath!65 i!66 l!67 reachedRefined!68 var!69 coreVars!70 j!71 res!72 reachableResult!73))
        ($main_if7 transitions!60 loopTransitions!61 loopSize!62 edgeVars!63 preSize!64 subPath!65 i!66 l!67 reachedRefined!68 var!69 coreVars!70 j!71 res!72 reachableResult!73 transitions!60 loopTransitions!61 loopSize!62 edgeVars!63 preSize!64 subPath!65 i!66 l!67 reachedRefined!68 var!69 coreVars!70 j!71 res!72 reachableResult!73))))

; forwards $main_inv3 (line 28)
(assert
  (forall ((transitions!172 Int) (coreVars!182 Int) (loopSize!174 Int) (l!67 Int) (loopSize!62 Int) (reachedRefined!180 Int) (preSize!176 Int) (res!184 Int) (var!69 Int) (reachedRefined!68 Int) (j!183 Int) (reachableResult!185 Int) (loopTransitions!61 Int) (res!72 Int) (edgeVars!63 Int) (subPath!177 Int) (j!71 Int) (preSize!64 Int) (i!66 Int) (coreVars!70 Int) (var!181 Int) (l!179 Int) (edgeVars!175 Int) (loopTransitions!173 Int) (subPath!65 Int) (i!178 Int) (reachableResult!73 Int) (transitions!60 Int))
    (=> (and ($main_if7 transitions!60 loopTransitions!61 loopSize!62 edgeVars!63 preSize!64 subPath!65 i!66 l!67 reachedRefined!68 var!69 coreVars!70 j!71 res!72 reachableResult!73 transitions!172 loopTransitions!173 loopSize!174 edgeVars!175 preSize!176 subPath!177 i!178 l!179 reachedRefined!180 var!181 coreVars!182 j!183 res!184 reachableResult!185))
        ($main_inv3 transitions!172 loopTransitions!173 loopSize!174 edgeVars!175 preSize!176 subPath!177 i!178 l!179 reachedRefined!180 var!181 coreVars!182 (+ j!183 1) res!184 reachableResult!185))))

; if else
(assert
  (forall ((loopSize!188 Int) (res!198 Int) (reachableResult!199 Int) (l!25 Int) (reachableResult!31 Int) (coreVars!28 Int) (loopSize!20 Int) (subPath!191 Int) (edgeVars!189 Int) (reachedRefined!26 Int) (transitions!186 Int) (res!30 Int) (l!193 Int) (var!195 Int) (i!192 Int) (loopTransitions!19 Int) (var!27 Int) (subPath!23 Int) (edgeVars!21 Int) (j!29 Int) (loopTransitions!187 Int) (j!197 Int) (preSize!22 Int) (i!24 Int) (reachedRefined!194 Int) (coreVars!196 Int) (transitions!18 Int) (preSize!190 Int))
    (=> (and (not (= subPath!191 preSize!190))
             ($main_sum3 transitions!186 loopTransitions!187 loopSize!188 edgeVars!189 preSize!190 subPath!191 i!192 l!193 reachedRefined!194 var!195 coreVars!196 j!197 res!198 reachableResult!199))
        ($main_if8 transitions!18 loopTransitions!19 loopSize!20 edgeVars!21 preSize!22 subPath!23 i!24 l!25 reachedRefined!26 var!27 coreVars!28 j!29 res!30 reachableResult!31 transitions!186 loopTransitions!187 loopSize!188 edgeVars!189 preSize!190 subPath!191 i!192 l!193 reachedRefined!194 var!195 coreVars!196 j!197 res!198 reachableResult!199))))

; forwards $main_inv1 (line 21)
(assert
  (forall ((loopSize!202 Int) (loopTransitions!19 Int) (preSize!204 Int) (coreVars!28 Int) (res!212 Int) (edgeVars!203 Int) (reachedRefined!26 Int) (transitions!18 Int) (res!30 Int) (loopTransitions!201 Int) (var!209 Int) (subPath!205 Int) (l!25 Int) (i!206 Int) (var!27 Int) (subPath!23 Int) (l!207 Int) (coreVars!210 Int) (reachableResult!31 Int) (reachableResult!213 Int) (transitions!200 Int) (reachedRefined!208 Int) (loopSize!20 Int) (edgeVars!21 Int) (j!211 Int) (j!29 Int) (preSize!22 Int) (i!24 Int))
    (=> (and ($main_if8 transitions!18 loopTransitions!19 loopSize!20 edgeVars!21 preSize!22 subPath!23 i!24 l!25 reachedRefined!26 var!27 coreVars!28 j!29 res!30 reachableResult!31 transitions!200 loopTransitions!201 loopSize!202 edgeVars!203 preSize!204 subPath!205 i!206 l!207 reachedRefined!208 var!209 coreVars!210 j!211 res!212 reachableResult!213))
        ($main_inv1 transitions!200 loopTransitions!201 loopSize!202 edgeVars!203 preSize!204 subPath!205 (+ i!206 1) l!207 reachedRefined!208 var!209 coreVars!210 0 res!212 reachableResult!213))))

; VERIFIER_assert (< subPath!219 l!221)
(assert
  (forall ((reachedRefined!222 Int) (subPath!219 Int) (res!226 Int) (edgeVars!217 Int) (j!225 Int) (preSize!218 Int) (i!220 Int) (loopTransitions!215 Int) (reachableResult!227 Int) (coreVars!224 Int) (l!221 Int) (loopSize!216 Int) (transitions!214 Int) (var!223 Int))
    (=> (and (not (< subPath!219 l!221))
             ($main_sum1 transitions!214 loopTransitions!215 loopSize!216 edgeVars!217 preSize!218 subPath!219 i!220 l!221 reachedRefined!222 var!223 coreVars!224 j!225 res!226 reachableResult!227))
        false)))

(check-sat)
